c turning on binary mode checking
c parsing input formula with 202048 variables and 780990 clauses
c finished parsing, read 2234109 bytes from proof file
c detected empty clause; start verification via backward checking
c 1764 of 780990 clauses in core                            
c 443 of 90737 lemmas in core using 10105 resolution steps
c 0 RAT lemmas in core; 28 redundant literals in core lemmas
s VERIFIED
c verification time: 0.963 seconds
